Name:		mgval_0.45_3A
Optimal value:	82
#Vehicles:	2
Capacity:	80
Depot Node:	1
#Nodes:		24
#Edges:		15
#Arcs:		33
#Required N:	15
#Required E:	8
#Required A:	18

ReN.	DEMAND	S. COST
N2	2	2
N3	2	2
N4	10	10
N5	5	5
N6	2	2
N7	3	3
N8	3	3
N9	2	2
N10	7	7
N12	3	3
N13	5	5
N14	4	4
N16	4	4
N19	4	4
N21	5	5

ReE.	FROM N.	TO N.	T. COST	DEMAND	S. COST
E8	6	12	1	3	3
E9	19	22	3	7	7
E10	12	13	1	2	2
E11	22	23	3	4	4
E12	12	16	1	1	1
E13	15	21	1	4	4
E14	5	11	4	4	4
E15	17	18	1	3	3

EDGE	FROM N.	TO N.	T. COST
NrE1	13	17	3
NrE2	21	24	1
NrE3	5	6	3
NrE4	10	11	3
NrE5	3	9	1
NrE6	4	5	2
NrE7	19	20	1

ReA.	FROM N.	TO N.	T. COST	DEMAND	S. COST
A16	20	10	2	2	2
A17	10	20	2	2	2
A18	4	2	1	2	2
A19	11	15	1	2	2
A20	24	23	1	5	5
A21	17	16	4	2	2
A22	3	1	1	2	2
A23	5	10	2	2	2
A24	15	11	1	2	2
A25	23	20	1	4	4
A26	20	21	2	2	2
A27	10	9	2	1	1
A28	1	2	2	2	2
A29	14	13	2	4	4
A30	18	14	3	6	6
A31	8	7	1	6	6
A32	15	16	1	1	1
A33	2	4	1	1	1

ARC	FROM N.	TO N.	T. COST
NrA1	14	8	3
NrA2	16	15	1
NrA3	19	9	1
NrA4	9	19	1
NrA5	2	1	2
NrA6	7	6	3
NrA7	10	5	2
NrA8	1	3	1
NrA9	8	14	3
NrA10	4	3	2
NrA11	12	11	1
NrA12	9	10	2
NrA13	21	20	2
NrA14	16	17	4
NrA15	6	7	3
